-266.0 3.0 6.0 2.0 8.0 8.0 3.0 5.0 3.0 6.0 2.0 8.0 5.0 8.0 9.0 1.0 10.0 0.0 6.0 9.0 2.0 10.0 0.0 8.0 2.0 1.0 7.0 1.0 9.0 8.0 1.0 1.0 7.0 3.0 10.0 1.0 6.0 2.0 2.0 5.0 9.0 1.0 2.0 1.0 8.0 2.0 6.0 10.0 10.0 7.0 8.0 4.0 10.0 
3.0 -238.0 3.0 6.0 2.0 5.0 6.0 3.0 1.0 3.0 5.0 6.0 7.0 10.0 9.0 8.0 2.0 8.0 8.0 5.0 8.0 4.0 10.0 3.0 5.0 10.0 2.0 4.0 1.0 2.0 1.0 3.0 9.0 10.0 8.0 1.0 4.0 1.0 1.0 8.0 6.0 1.0 3.0 4.0 9.0 4.0 9.0 5.0 2.0 0.0 0.0 0.0 0.0 
6.0 3.0 -273.0 3.0 9.0 9.0 0.0 4.0 7.0 0.0 8.0 7.0 0.0 1.0 4.0 10.0 6.0 3.0 9.0 3.0 3.0 8.0 0.0 5.0 2.0 8.0 9.0 8.0 1.0 5.0 10.0 6.0 6.0 10.0 2.0 6.0 0.0 7.0 7.0 7.0 2.0 9.0 6.0 8.0 1.0 7.0 7.0 3.0 9.0 2.0 9.0 2.0 6.0 
2.0 6.0 3.0 -282.0 9.0 9.0 10.0 4.0 5.0 1.0 4.0 2.0 5.0 3.0 7.0 6.0 10.0 5.0 6.0 4.0 6.0 7.0 7.0 0.0 9.0 4.0 2.0 0.0 1.0 6.0 10.0 5.0 7.0 2.0 7.0 7.0 7.0 9.0 7.0 1.0 9.0 5.0 9.0 5.0 6.0 4.0 4.0 8.0 2.0 7.0 5.0 4.0 9.0 
8.0 2.0 9.0 9.0 -339.0 10.0 7.0 6.0 10.0 5.0 2.0 9.0 6.0 10.0 0.0 9.0 10.0 10.0 10.0 9.0 10.0 8.0 6.0 2.0 6.0 0.0 4.0 7.0 10.0 7.0 7.0 9.0 5.0 5.0 2.0 6.0 0.0 10.0 7.0 9.0 8.0 5.0 9.0 8.0 0.0 4.0 5.0 8.0 10.0 10.0 5.0 1.0 5.0 
8.0 5.0 9.0 9.0 10.0 -291.0 6.0 1.0 8.0 0.0 4.0 3.0 3.0 8.0 9.0 9.0 10.0 1.0 10.0 9.0 9.0 5.0 8.0 9.0 6.0 3.0 8.0 2.0 10.0 3.0 2.0 4.0 4.0 5.0 2.0 5.0 1.0 8.0 7.0 8.0 0.0 6.0 7.0 1.0 2.0 10.0 2.0 0.0 8.0 8.0 6.0 10.0 0.0 
3.0 6.0 0.0 10.0 7.0 6.0 -249.0 10.0 9.0 7.0 4.0 1.0 1.0 5.0 1.0 6.0 10.0 4.0 9.0 0.0 6.0 1.0 1.0 5.0 6.0 4.0 10.0 2.0 6.0 3.0 7.0 6.0 2.0 4.0 3.0 0.0 6.0 10.0 1.0 1.0 6.0 7.0 5.0 0.0 6.0 6.0 3.0 4.0 4.0 9.0 9.0 5.0 2.0 
5.0 3.0 4.0 4.0 6.0 1.0 10.0 -260.0 8.0 5.0 10.0 2.0 10.0 1.0 8.0 0.0 6.0 5.0 7.0 0.0 0.0 4.0 10.0 2.0 1.0 7.0 2.0 1.0 6.0 8.0 10.0 10.0 2.0 4.0 0.0 3.0 9.0 6.0 8.0 5.0 10.0 1.0 5.0 9.0 6.0 10.0 3.0 2.0 8.0 6.0 1.0 6.0 0.0 
3.0 1.0 7.0 5.0 10.0 8.0 9.0 8.0 -243.0 2.0 9.0 4.0 6.0 2.0 7.0 5.0 10.0 4.0 0.0 8.0 2.0 7.0 4.0 1.0 4.0 2.0 0.0 5.0 3.0 1.0 2.0 6.0 1.0 9.0 0.0 0.0 5.0 5.0 1.0 8.0 9.0 2.0 2.0 3.0 9.0 1.0 2.0 7.0 10.0 8.0 10.0 1.0 5.0 
6.0 3.0 0.0 1.0 5.0 0.0 7.0 5.0 2.0 -254.0 6.0 5.0 2.0 5.0 7.0 4.0 2.0 5.0 9.0 5.0 0.0 3.0 3.0 2.0 10.0 0.0 6.0 5.0 5.0 0.0 4.0 8.0 5.0 4.0 7.0 2.0 5.0 1.0 10.0 3.0 7.0 6.0 6.0 3.0 10.0 9.0 8.0 9.0 8.0 7.0 4.0 10.0 5.0 
2.0 5.0 8.0 4.0 2.0 4.0 4.0 10.0 9.0 6.0 -281.0 6.0 1.0 6.0 2.0 1.0 9.0 4.0 8.0 10.0 5.0 4.0 7.0 8.0 2.0 6.0 10.0 8.0 5.0 7.0 8.0 1.0 5.0 2.0 4.0 3.0 3.0 10.0 10.0 1.0 7.0 4.0 4.0 1.0 10.0 3.0 7.0 10.0 3.0 7.0 3.0 6.0 6.0 
8.0 6.0 7.0 2.0 9.0 3.0 1.0 2.0 4.0 5.0 6.0 -247.0 0.0 6.0 6.0 0.0 9.0 0.0 6.0 8.0 6.0 6.0 6.0 10.0 2.0 7.0 3.0 2.0 8.0 10.0 4.0 3.0 2.0 2.0 4.0 1.0 2.0 4.0 2.0 5.0 7.0 2.0 5.0 6.0 4.0 8.0 8.0 9.0 7.0 5.0 2.0 1.0 6.0 
5.0 7.0 0.0 5.0 6.0 3.0 1.0 10.0 6.0 2.0 1.0 0.0 -249.0 1.0 10.0 9.0 0.0 7.0 7.0 4.0 1.0 10.0 10.0 1.0 9.0 3.0 5.0 1.0 7.0 5.0 5.0 4.0 9.0 5.0 0.0 5.0 0.0 6.0 5.0 0.0 1.0 8.0 7.0 9.0 5.0 1.0 9.0 1.0 9.0 4.0 10.0 9.0 1.0 
8.0 10.0 1.0 3.0 10.0 8.0 5.0 1.0 2.0 5.0 6.0 6.0 1.0 -287.0 1.0 9.0 0.0 8.0 9.0 2.0 8.0 9.0 8.0 4.0 2.0 9.0 3.0 6.0 9.0 3.0 10.0 6.0 2.0 6.0 6.0 0.0 6.0 8.0 6.0 10.0 4.0 10.0 2.0 10.0 5.0 1.0 2.0 10.0 6.0 10.0 1.0 0.0 10.0 
9.0 9.0 4.0 7.0 0.0 9.0 1.0 8.0 7.0 7.0 2.0 6.0 10.0 1.0 -276.0 6.0 7.0 3.0 9.0 6.0 5.0 3.0 2.0 7.0 5.0 2.0 9.0 2.0 8.0 10.0 6.0 7.0 3.0 8.0 1.0 3.0 8.0 4.0 2.0 5.0 5.0 4.0 3.0 1.0 1.0 4.0 1.0 7.0 10.0 9.0 2.0 9.0 9.0 
1.0 8.0 10.0 6.0 9.0 9.0 6.0 0.0 5.0 4.0 1.0 0.0 9.0 9.0 6.0 -322.0 10.0 10.0 0.0 7.0 10.0 9.0 8.0 9.0 5.0 5.0 8.0 5.0 10.0 10.0 7.0 3.0 8.0 8.0 10.0 10.0 10.0 8.0 7.0 8.0 9.0 8.0 5.0 0.0 2.0 1.0 5.0 0.0 5.0 1.0 8.0 1.0 9.0 
10.0 2.0 6.0 10.0 10.0 10.0 10.0 6.0 10.0 2.0 9.0 9.0 0.0 0.0 7.0 10.0 -305.0 7.0 6.0 3.0 2.0 10.0 0.0 1.0 8.0 5.0 6.0 9.0 7.0 10.0 2.0 5.0 9.0 3.0 3.0 1.0 8.0 9.0 9.0 7.0 5.0 7.0 3.0 4.0 7.0 6.0 7.0 2.0 2.0 1.0 7.0 6.0 7.0 
0.0 8.0 3.0 5.0 10.0 1.0 4.0 5.0 4.0 5.0 4.0 0.0 7.0 8.0 3.0 10.0 7.0 -278.0 2.0 8.0 10.0 6.0 6.0 8.0 2.0 8.0 3.0 7.0 4.0 8.0 9.0 7.0 7.0 2.0 6.0 3.0 5.0 8.0 5.0 0.0 1.0 5.0 10.0 0.0 10.0 4.0 10.0 6.0 4.0 3.0 8.0 8.0 1.0 
6.0 8.0 9.0 6.0 10.0 10.0 9.0 7.0 0.0 9.0 8.0 6.0 7.0 9.0 9.0 0.0 6.0 2.0 -269.0 7.0 0.0 2.0 2.0 7.0 8.0 3.0 3.0 2.0 3.0 8.0 3.0 8.0 10.0 3.0 6.0 2.0 8.0 7.0 0.0 6.0 0.0 0.0 10.0 6.0 0.0 2.0 1.0 4.0 6.0 5.0 2.0 4.0 10.0 
9.0 5.0 3.0 4.0 9.0 9.0 0.0 0.0 8.0 5.0 10.0 8.0 4.0 2.0 6.0 7.0 3.0 8.0 7.0 -256.0 1.0 2.0 9.0 9.0 5.0 7.0 9.0 6.0 7.0 0.0 7.0 6.0 5.0 3.0 2.0 1.0 1.0 1.0 2.0 8.0 3.0 2.0 0.0 10.0 4.0 6.0 8.0 1.0 4.0 3.0 1.0 7.0 9.0 
2.0 8.0 3.0 6.0 10.0 9.0 6.0 0.0 2.0 0.0 5.0 6.0 1.0 8.0 5.0 10.0 2.0 10.0 0.0 1.0 -250.0 3.0 1.0 3.0 3.0 10.0 8.0 6.0 1.0 1.0 1.0 0.0 10.0 3.0 10.0 3.0 3.0 4.0 7.0 7.0 6.0 7.0 7.0 7.0 10.0 3.0 4.0 1.0 7.0 0.0 10.0 6.0 4.0 
10.0 4.0 8.0 7.0 8.0 5.0 1.0 4.0 7.0 3.0 4.0 6.0 10.0 9.0 3.0 9.0 10.0 6.0 2.0 2.0 3.0 -292.0 10.0 0.0 4.0 8.0 10.0 6.0 3.0 1.0 8.0 8.0 4.0 6.0 7.0 9.0 9.0 0.0 3.0 10.0 9.0 3.0 9.0 6.0 7.0 1.0 5.0 3.0 6.0 3.0 4.0 8.0 1.0 
0.0 10.0 0.0 7.0 6.0 8.0 1.0 10.0 4.0 3.0 7.0 6.0 10.0 8.0 2.0 8.0 0.0 6.0 2.0 9.0 1.0 10.0 -255.0 9.0 0.0 2.0 2.0 4.0 2.0 9.0 1.0 9.0 9.0 5.0 6.0 0.0 10.0 10.0 10.0 3.0 4.0 7.0 3.0 3.0 6.0 2.0 3.0 1.0 3.0 5.0 0.0 7.0 2.0 
8.0 3.0 5.0 0.0 2.0 9.0 5.0 2.0 1.0 2.0 8.0 10.0 1.0 4.0 7.0 9.0 1.0 8.0 7.0 9.0 3.0 0.0 9.0 -255.0 0.0 5.0 5.0 5.0 1.0 1.0 6.0 6.0 4.0 10.0 5.0 10.0 0.0 2.0 8.0 4.0 2.0 9.0 7.0 2.0 9.0 5.0 2.0 7.0 4.0 4.0 6.0 5.0 8.0 
2.0 5.0 2.0 9.0 6.0 6.0 6.0 1.0 4.0 10.0 2.0 2.0 9.0 2.0 5.0 5.0 8.0 2.0 8.0 5.0 3.0 4.0 0.0 0.0 -246.0 3.0 9.0 1.0 5.0 10.0 6.0 3.0 4.0 5.0 1.0 1.0 0.0 6.0 3.0 6.0 6.0 10.0 4.0 3.0 10.0 4.0 6.0 7.0 9.0 8.0 8.0 0.0 2.0 
1.0 10.0 8.0 4.0 0.0 3.0 4.0 7.0 2.0 0.0 6.0 7.0 3.0 9.0 2.0 5.0 5.0 8.0 3.0 7.0 10.0 8.0 2.0 5.0 3.0 -250.0 1.0 9.0 4.0 6.0 2.0 2.0 9.0 0.0 9.0 1.0 3.0 6.0 5.0 3.0 8.0 6.0 7.0 4.0 10.0 9.0 1.0 7.0 9.0 2.0 0.0 4.0 1.0 
7.0 2.0 9.0 2.0 4.0 8.0 10.0 2.0 0.0 6.0 10.0 3.0 5.0 3.0 9.0 8.0 6.0 3.0 3.0 9.0 8.0 10.0 2.0 5.0 9.0 1.0 -282.0 4.0 4.0 8.0 4.0 3.0 6.0 8.0 5.0 3.0 10.0 6.0 9.0 3.0 8.0 5.0 9.0 9.0 2.0 4.0 0.0 0.0 6.0 9.0 2.0 8.0 3.0 
1.0 4.0 8.0 0.0 7.0 2.0 2.0 1.0 5.0 5.0 8.0 2.0 1.0 6.0 2.0 5.0 9.0 7.0 2.0 6.0 6.0 6.0 4.0 5.0 1.0 9.0 4.0 -236.0 6.0 2.0 9.0 0.0 9.0 3.0 0.0 8.0 3.0 0.0 9.0 0.0 10.0 9.0 4.0 2.0 6.0 4.0 1.0 5.0 5.0 9.0 4.0 6.0 4.0 
9.0 1.0 1.0 1.0 10.0 10.0 6.0 6.0 3.0 5.0 5.0 8.0 7.0 9.0 8.0 10.0 7.0 4.0 3.0 7.0 1.0 3.0 2.0 1.0 5.0 4.0 4.0 6.0 -248.0 10.0 2.0 4.0 10.0 3.0 1.0 1.0 0.0 3.0 1.0 9.0 4.0 0.0 6.0 3.0 4.0 7.0 4.0 3.0 3.0 1.0 7.0 6.0 10.0 
8.0 2.0 5.0 6.0 7.0 3.0 3.0 8.0 1.0 0.0 7.0 10.0 5.0 3.0 10.0 10.0 10.0 8.0 8.0 0.0 1.0 1.0 9.0 1.0 10.0 6.0 8.0 2.0 10.0 -276.0 6.0 0.0 5.0 6.0 6.0 4.0 0.0 10.0 1.0 2.0 3.0 7.0 3.0 8.0 4.0 9.0 4.0 4.0 10.0 5.0 5.0 2.0 10.0 
1.0 1.0 10.0 10.0 7.0 2.0 7.0 10.0 2.0 4.0 8.0 4.0 5.0 10.0 6.0 7.0 2.0 9.0 3.0 7.0 1.0 8.0 1.0 6.0 6.0 2.0 4.0 9.0 2.0 6.0 -264.0 0.0 7.0 5.0 4.0 3.0 8.0 6.0 2.0 7.0 7.0 3.0 0.0 1.0 10.0 10.0 3.0 7.0 1.0 2.0 1.0 7.0 10.0 
1.0 3.0 6.0 5.0 9.0 4.0 6.0 10.0 6.0 8.0 1.0 3.0 4.0 6.0 7.0 3.0 5.0 7.0 8.0 6.0 0.0 8.0 9.0 6.0 3.0 2.0 3.0 0.0 4.0 0.0 0.0 -225.0 10.0 0.0 8.0 4.0 9.0 9.0 9.0 1.0 2.0 1.0 1.0 5.0 1.0 1.0 5.0 0.0 7.0 0.0 6.0 3.0 0.0 
7.0 9.0 6.0 7.0 5.0 4.0 2.0 2.0 1.0 5.0 5.0 2.0 9.0 2.0 3.0 8.0 9.0 7.0 10.0 5.0 10.0 4.0 9.0 4.0 4.0 9.0 6.0 9.0 10.0 5.0 7.0 10.0 -278.0 3.0 0.0 4.0 2.0 9.0 0.0 10.0 1.0 3.0 2.0 7.0 3.0 1.0 7.0 10.0 4.0 10.0 5.0 0.0 2.0 
3.0 10.0 10.0 2.0 5.0 5.0 4.0 4.0 9.0 4.0 2.0 2.0 5.0 6.0 8.0 8.0 3.0 2.0 3.0 3.0 3.0 6.0 5.0 10.0 5.0 0.0 8.0 3.0 3.0 6.0 5.0 0.0 3.0 -259.0 4.0 9.0 4.0 10.0 3.0 4.0 2.0 2.0 9.0 0.0 2.0 3.0 10.0 10.0 10.0 5.0 6.0 5.0 6.0 
10.0 8.0 2.0 7.0 2.0 2.0 3.0 0.0 0.0 7.0 4.0 4.0 0.0 6.0 1.0 10.0 3.0 6.0 6.0 2.0 10.0 7.0 6.0 5.0 1.0 9.0 5.0 0.0 1.0 6.0 4.0 8.0 0.0 4.0 -247.0 9.0 2.0 9.0 4.0 9.0 8.0 10.0 10.0 6.0 5.0 5.0 10.0 1.0 0.0 1.0 1.0 4.0 4.0 
1.0 1.0 6.0 7.0 6.0 5.0 0.0 3.0 0.0 2.0 3.0 1.0 5.0 0.0 3.0 10.0 1.0 3.0 2.0 1.0 3.0 9.0 0.0 10.0 1.0 1.0 3.0 8.0 1.0 4.0 3.0 4.0 4.0 9.0 9.0 -226.0 6.0 3.0 3.0 8.0 7.0 4.0 6.0 4.0 10.0 5.0 1.0 8.0 8.0 4.0 3.0 7.0 10.0 
6.0 4.0 0.0 7.0 0.0 1.0 6.0 9.0 5.0 5.0 3.0 2.0 0.0 6.0 8.0 10.0 8.0 5.0 8.0 1.0 3.0 9.0 10.0 0.0 0.0 3.0 10.0 3.0 0.0 0.0 8.0 9.0 2.0 4.0 2.0 6.0 -262.0 10.0 8.0 8.0 8.0 6.0 9.0 8.0 5.0 8.0 10.0 7.0 6.0 2.0 2.0 1.0 1.0 
2.0 1.0 7.0 9.0 10.0 8.0 10.0 6.0 5.0 1.0 10.0 4.0 6.0 8.0 4.0 8.0 9.0 8.0 7.0 1.0 4.0 0.0 10.0 2.0 6.0 6.0 6.0 0.0 3.0 10.0 6.0 9.0 9.0 10.0 9.0 3.0 10.0 -315.0 8.0 7.0 8.0 6.0 3.0 5.0 4.0 4.0 3.0 1.0 7.0 6.0 8.0 10.0 8.0 
2.0 1.0 7.0 7.0 7.0 7.0 1.0 8.0 1.0 10.0 10.0 2.0 5.0 6.0 2.0 7.0 9.0 5.0 0.0 2.0 7.0 3.0 10.0 8.0 3.0 5.0 9.0 9.0 1.0 1.0 2.0 9.0 0.0 3.0 4.0 3.0 8.0 8.0 -264.0 7.0 0.0 7.0 10.0 0.0 9.0 2.0 10.0 7.0 7.0 1.0 3.0 0.0 9.0 
5.0 8.0 7.0 1.0 9.0 8.0 1.0 5.0 8.0 3.0 1.0 5.0 0.0 10.0 5.0 8.0 7.0 0.0 6.0 8.0 7.0 10.0 3.0 4.0 6.0 3.0 3.0 0.0 9.0 2.0 7.0 1.0 10.0 4.0 9.0 8.0 8.0 7.0 7.0 -272.0 4.0 5.0 5.0 5.0 8.0 1.0 3.0 6.0 1.0 8.0 5.0 1.0 7.0 
9.0 6.0 2.0 9.0 8.0 0.0 6.0 10.0 9.0 7.0 7.0 7.0 1.0 4.0 5.0 9.0 5.0 1.0 0.0 3.0 6.0 9.0 4.0 2.0 6.0 8.0 8.0 10.0 4.0 3.0 7.0 2.0 1.0 2.0 8.0 7.0 8.0 8.0 0.0 4.0 -277.0 5.0 0.0 6.0 6.0 10.0 5.0 0.0 5.0 9.0 5.0 1.0 10.0 
1.0 1.0 9.0 5.0 5.0 6.0 7.0 1.0 2.0 6.0 4.0 2.0 8.0 10.0 4.0 8.0 7.0 5.0 0.0 2.0 7.0 3.0 7.0 9.0 10.0 6.0 5.0 9.0 0.0 7.0 3.0 1.0 3.0 2.0 10.0 4.0 6.0 6.0 7.0 5.0 5.0 -267.0 7.0 2.0 3.0 6.0 0.0 0.0 7.0 8.0 9.0 8.0 9.0 
2.0 3.0 6.0 9.0 9.0 7.0 5.0 5.0 2.0 6.0 4.0 5.0 7.0 2.0 3.0 5.0 3.0 10.0 10.0 0.0 7.0 9.0 3.0 7.0 4.0 7.0 9.0 4.0 6.0 3.0 0.0 1.0 2.0 9.0 10.0 6.0 9.0 3.0 10.0 5.0 0.0 7.0 -266.0 0.0 0.0 7.0 2.0 10.0 3.0 8.0 8.0 2.0 2.0 
1.0 4.0 8.0 5.0 8.0 1.0 0.0 9.0 3.0 3.0 1.0 6.0 9.0 10.0 1.0 0.0 4.0 0.0 6.0 10.0 7.0 6.0 3.0 2.0 3.0 4.0 9.0 2.0 3.0 8.0 1.0 5.0 7.0 0.0 6.0 4.0 8.0 5.0 0.0 5.0 6.0 2.0 0.0 -226.0 2.0 8.0 3.0 4.0 4.0 4.0 5.0 9.0 2.0 
8.0 9.0 1.0 6.0 0.0 2.0 6.0 6.0 9.0 10.0 10.0 4.0 5.0 5.0 1.0 2.0 7.0 10.0 0.0 4.0 10.0 7.0 6.0 9.0 10.0 10.0 2.0 6.0 4.0 4.0 10.0 1.0 3.0 2.0 5.0 10.0 5.0 4.0 9.0 8.0 6.0 3.0 0.0 2.0 -278.0 6.0 8.0 5.0 3.0 3.0 1.0 8.0 3.0 
2.0 4.0 7.0 4.0 4.0 10.0 6.0 10.0 1.0 9.0 3.0 8.0 1.0 1.0 4.0 1.0 6.0 4.0 2.0 6.0 3.0 1.0 2.0 5.0 4.0 9.0 4.0 4.0 7.0 9.0 10.0 1.0 1.0 3.0 5.0 5.0 8.0 4.0 2.0 1.0 10.0 6.0 7.0 8.0 6.0 -260.0 1.0 7.0 9.0 7.0 4.0 6.0 8.0 
6.0 9.0 7.0 4.0 5.0 2.0 3.0 3.0 2.0 8.0 7.0 8.0 9.0 2.0 1.0 5.0 7.0 10.0 1.0 8.0 4.0 5.0 3.0 2.0 6.0 1.0 0.0 1.0 4.0 4.0 3.0 5.0 7.0 10.0 10.0 1.0 10.0 3.0 10.0 3.0 5.0 0.0 2.0 3.0 8.0 1.0 -238.0 0.0 7.0 3.0 4.0 5.0 1.0 
10.0 5.0 3.0 8.0 8.0 0.0 4.0 2.0 7.0 9.0 10.0 9.0 1.0 10.0 7.0 0.0 2.0 6.0 4.0 1.0 1.0 3.0 1.0 7.0 7.0 7.0 0.0 5.0 3.0 4.0 7.0 0.0 10.0 10.0 1.0 8.0 7.0 1.0 7.0 6.0 0.0 0.0 10.0 4.0 5.0 7.0 0.0 -259.0 9.0 7.0 9.0 1.0 6.0 
10.0 2.0 9.0 2.0 10.0 8.0 4.0 8.0 10.0 8.0 3.0 7.0 9.0 6.0 10.0 5.0 2.0 4.0 6.0 4.0 7.0 6.0 3.0 4.0 9.0 9.0 6.0 5.0 3.0 10.0 1.0 7.0 4.0 10.0 0.0 8.0 6.0 7.0 7.0 1.0 5.0 7.0 3.0 4.0 3.0 9.0 7.0 9.0 -295.0 1.0 0.0 6.0 1.0 
7.0 0.0 2.0 7.0 10.0 8.0 9.0 6.0 8.0 7.0 7.0 5.0 4.0 10.0 9.0 1.0 1.0 3.0 5.0 3.0 0.0 3.0 5.0 4.0 8.0 2.0 9.0 9.0 1.0 5.0 2.0 0.0 10.0 5.0 1.0 4.0 2.0 6.0 1.0 8.0 9.0 8.0 8.0 4.0 3.0 7.0 3.0 7.0 1.0 -255.0 5.0 0.0 3.0 
8.0 0.0 9.0 5.0 5.0 6.0 9.0 1.0 10.0 4.0 3.0 2.0 10.0 1.0 2.0 8.0 7.0 8.0 2.0 1.0 10.0 4.0 0.0 6.0 8.0 0.0 2.0 4.0 7.0 5.0 1.0 6.0 5.0 6.0 1.0 3.0 2.0 8.0 3.0 5.0 5.0 9.0 8.0 5.0 1.0 4.0 4.0 9.0 0.0 5.0 -248.0 1.0 10.0 
4.0 0.0 2.0 4.0 1.0 10.0 5.0 6.0 1.0 10.0 6.0 1.0 9.0 0.0 9.0 1.0 6.0 8.0 4.0 7.0 6.0 8.0 7.0 5.0 0.0 4.0 8.0 6.0 6.0 2.0 7.0 3.0 0.0 5.0 4.0 7.0 1.0 10.0 0.0 1.0 1.0 8.0 2.0 9.0 8.0 6.0 5.0 1.0 6.0 0.0 1.0 -232.0 1.0 
10.0 0.0 6.0 9.0 5.0 0.0 2.0 0.0 5.0 5.0 6.0 6.0 1.0 10.0 9.0 9.0 7.0 1.0 10.0 9.0 4.0 1.0 2.0 8.0 2.0 1.0 3.0 4.0 10.0 10.0 10.0 0.0 2.0 6.0 4.0 10.0 1.0 8.0 9.0 7.0 10.0 9.0 2.0 2.0 3.0 8.0 1.0 6.0 1.0 3.0 10.0 1.0 -268.0 

